NAME          ClpDefau
ROWS
 N  OBJROW
 L  R_148_0
 L  R_148_1
 L  R_148_2
 L  R_148_3
 L  R_148_4
 L  R_148_5
 L  R_148_6
 L  R_148_7
 L  R_148_8
 L  R_148_9
 L  R_148_10
 L  R_148_11
 L  R_148_12
 L  R_148_13
 L  R_148_14
 L  R_148_15
COLUMNS
    x_0       OBJROW     -8.           R_148_2   88.         
    x_0       R_148_3   56.         
    x_1       OBJROW     -12.          R_148_2   23.         
    x_1       R_148_4   42.            R_148_5   66.         
    x_1       R_148_9   58.         
    x_2       OBJROW     -11.          R_148_2   97.         
    x_3       OBJROW     -47.       
    x_4       OBJROW     -22.          R_148_8   25.         
    x_4       R_148_10  74.            R_148_15  67.         
    x_5       OBJROW     -95.          R_148_0   35.         
    x_5       R_148_6   47.            R_148_9   15.         
    x_5       R_148_11  94.            R_148_14  21.         
    x_6       OBJROW     -86.          R_148_1   76.         
    x_6       R_148_2   32.            R_148_3   5.          
    x_6       R_148_4   79.            R_148_12  34.         
    x_7       OBJROW     -40.          R_148_4   58.         
RHS
    RHS       R_148_0   102.           R_148_1   97.         
    RHS       R_148_2   84.            R_148_3   101.        
    RHS       R_148_4   81.            R_148_5   88.         
    RHS       R_148_6   81.            R_148_7   84.         
    RHS       R_148_8   85.            R_148_9   85.         
    RHS       R_148_10  83.            R_148_11  94.         
    RHS       R_148_12  100.           R_148_13  87.         
    RHS       R_148_14  96.            R_148_15  102.        
BOUNDS
 UI BOUND     x_0       100.        
 UI BOUND     x_1       100.        
 UI BOUND     x_2       100.        
 UI BOUND     x_3       100.        
 UI BOUND     x_4       100.        
 UI BOUND     x_5       100.        
 UI BOUND     x_6       100.        
 UI BOUND     x_7       100.        
ENDATA
